This is Ipopt version 3.14.14, running with linear solver MUMPS 5.6.2.

Number of nonzeros in equality constraint Jacobian...:        0
Number of nonzeros in inequality constraint Jacobian.:       56
Number of nonzeros in Lagrangian Hessian.............:        0

Total number of variables............................:        7
                     variables with only lower bounds:        0
                variables with lower and upper bounds:        7
                     variables with only upper bounds:        0
Total number of equality constraints.................:        0
Total number of inequality constraints...............:        8
        inequality constraints with only lower bounds:        0
   inequality constraints with lower and upper bounds:        8
        inequality constraints with only upper bounds:        0

iter    objective    inf_pr   inf_du lg(mu)  ||d||  lg(rg) alpha_du alpha_pr  ls
   0  1.8914162e-02 0.00e+00 4.57e-02   0.0 0.00e+00    -  0.00e+00 0.00e+00   0
   1  2.2430016e-02 0.00e+00 1.79e+00   0.3 1.80e+00    -  9.92e-01 9.90e-01h  1
   2  1.2096438e-02 0.00e+00 1.34e+01  -0.9 1.19e-01    -  1.00e+00 9.90e-01h  1
   3  9.8650455e-03 0.00e+00 5.38e-02  -2.6 2.33e-02    -  1.00e+00 1.00e+00h  1
   4  6.3150240e-03 0.00e+00 2.15e-02  -4.4 4.23e-02    -  1.00e+00 1.00e+00f  1
   5  6.1806326e-03 0.00e+00 2.30e-02  -5.9 1.17e-02    -  1.00e+00 1.00e+00f  1
   6  5.7643824e-03 0.00e+00 1.21e-02  -7.6 2.78e-02    -  1.00e+00 1.00e+00f  1
   7  5.3644142e-03 0.00e+00 4.46e-03  -9.2 5.06e-02    -  1.00e+00 1.00e+00f  1
   8  4.9906973e-03 0.00e+00 2.79e-03 -10.8 6.07e-02    -  1.00e+00 1.00e+00f  1
   9  4.5888304e-03 0.00e+00 3.32e-02 -11.0 4.52e-01    -  1.00e+00 2.50e-01f  3
iter    objective    inf_pr   inf_du lg(mu)  ||d||  lg(rg) alpha_du alpha_pr  ls
  10  4.3144325e-03 0.00e+00 8.18e-02 -11.0 5.30e-01    -  1.00e+00 2.50e-01f  3
  11  3.9334068e-03 0.00e+00 2.91e-02 -11.0 9.22e-02    -  1.00e+00 1.00e+00f  1
  12  3.5246199e-03 0.00e+00 4.37e-02 -11.0 1.36e+00    -  1.00e+00 1.25e-01f  4
  13  2.5113299e-03 0.00e+00 3.78e-02 -11.0 4.00e-01    -  1.00e+00 5.00e-01f  2
  14  1.7309217e-03 0.00e+00 4.16e-03 -11.0 3.86e-01    -  1.00e+00 1.00e+00f  1
  15  1.6258807e-03 0.00e+00 1.38e-02 -11.0 1.23e+00    -  1.00e+00 1.25e-01f  4
  16  1.5071693e-03 0.00e+00 2.02e-02 -11.0 2.30e+00    -  1.00e+00 1.25e-01f  4
  17  1.3169529e-03 0.00e+00 8.16e-03 -11.0 7.31e-01    -  1.00e+00 5.00e-01f  2
  18  1.1541282e-03 0.00e+00 5.10e-03 -11.0 3.10e+00    -  1.00e+00 1.25e-01f  4
  19  8.7507964e-04 0.00e+00 3.57e-03 -10.8 6.13e+00    -  1.00e+00 6.81e-02f  4
iter    objective    inf_pr   inf_du lg(mu)  ||d||  lg(rg) alpha_du alpha_pr  ls
  20  8.5140410e-04 0.00e+00 7.51e-03  -8.7 2.10e+03    -  2.49e-03 4.17e-05f  6

Number of Iterations....: 20

                                   (scaled)                 (unscaled)
Objective...............:   8.5140410490588763e-04    8.5140410490588763e-04
Dual infeasibility......:   7.5149449839863307e-03    7.5149449839863307e-03
Constraint violation....:   0.0000000000000000e+00    0.0000000000000000e+00
Variable bound violation:   0.0000000000000000e+00    0.0000000000000000e+00
Complementarity.........:   1.2496793214899576e-10    1.2496793214899576e-10
Overall NLP error.......:   7.5149449839863307e-03    7.5149449839863307e-03


Number of objective function evaluations             = 84
Number of objective gradient evaluations             = 21
Number of equality constraint evaluations            = 0
Number of inequality constraint evaluations          = 84
Number of equality constraint Jacobian evaluations   = 0
Number of inequality constraint Jacobian evaluations = 21
Number of Lagrangian Hessian evaluations             = 0
Total seconds in IPOPT                               = 1.556

EXIT: Maximum Number of Iterations Exceeded.
